U_400_7.txt

VEHICLE     CAPACITY  LOCATIONS  CUSTOMER  OPTIONS  PRIORITIES  NUMTYPS
10		150		481		400		800		3		4

CUSTOMER  DEMAND
0	 14
1	 13
2	 18
3	 13
4	 12
5	 18
6	 12
7	 20
8	 20
9	 13
10	 17
11	 16
12	 13
13	 10
14	 11
15	 13
16	 18
17	 20
18	 12
19	 13
20	 19
21	 16
22	 11
23	 16
24	 18
25	 15
26	 18
27	 13
28	 12
29	 20
30	 20
31	 15
32	 10
33	 14
34	 20
35	 17
36	 14
37	 15
38	 20
39	 17
40	 19
41	 10
42	 15
43	 18
44	 17
45	 18
46	 18
47	 20
48	 17
49	 19
50	 11
51	 14
52	 19
53	 15
54	 12
55	 20
56	 12
57	 13
58	 14
59	 16
60	 13
61	 17
62	 20
63	 13
64	 15
65	 16
66	 10
67	 16
68	 14
69	 13
70	 15
71	 19
72	 12
73	 14
74	 12
75	 14
76	 17
77	 17
78	 13
79	 18
80	 13
81	 15
82	 20
83	 16
84	 17
85	 12
86	 15
87	 18
88	 20
89	 14
90	 16
91	 19
92	 11
93	 17
94	 11
95	 20
96	 18
97	 11
98	 16
99	 12
100	 11
101	 11
102	 16
103	 19
104	 16
105	 16
106	 15
107	 13
108	 18
109	 10
110	 14
111	 14
112	 13
113	 20
114	 20
115	 14
116	 16
117	 13
118	 11
119	 16
120	 18
121	 19
122	 20
123	 12
124	 12
125	 14
126	 13
127	 14
128	 18
129	 16
130	 20
131	 14
132	 19
133	 13
134	 14
135	 19
136	 11
137	 20
138	 17
139	 12
140	 16
141	 12
142	 17
143	 14
144	 16
145	 18
146	 20
147	 19
148	 14
149	 18
150	 17
151	 14
152	 14
153	 20
154	 12
155	 17
156	 13
157	 13
158	 15
159	 17
160	 14
161	 16
162	 16
163	 16
164	 14
165	 12
166	 18
167	 20
168	 14
169	 12
170	 15
171	 17
172	 19
173	 13
174	 19
175	 14
176	 15
177	 20
178	 20
179	 15
180	 10
181	 10
182	 19
183	 11
184	 11
185	 14
186	 18
187	 12
188	 19
189	 11
190	 11
191	 12
192	 15
193	 14
194	 18
195	 19
196	 13
197	 13
198	 15
199	 11
200	 12
201	 20
202	 19
203	 20
204	 17
205	 17
206	 15
207	 12
208	 19
209	 18
210	 20
211	 10
212	 14
213	 13
214	 15
215	 12
216	 10
217	 12
218	 18
219	 15
220	 20
221	 14
222	 15
223	 13
224	 10
225	 15
226	 18
227	 20
228	 16
229	 12
230	 19
231	 13
232	 11
233	 12
234	 16
235	 10
236	 16
237	 16
238	 16
239	 20
240	 13
241	 16
242	 14
243	 13
244	 12
245	 18
246	 18
247	 12
248	 14
249	 13
250	 11
251	 13
252	 17
253	 12
254	 13
255	 20
256	 19
257	 17
258	 13
259	 17
260	 10
261	 20
262	 16
263	 20
264	 14
265	 14
266	 16
267	 11
268	 10
269	 18
270	 15
271	 19
272	 18
273	 15
274	 14
275	 16
276	 17
277	 12
278	 20
279	 10
280	 16
281	 11
282	 16
283	 20
284	 12
285	 19
286	 17
287	 11
288	 18
289	 12
290	 14
291	 14
292	 15
293	 19
294	 14
295	 15
296	 18
297	 19
298	 19
299	 17
300	 10
301	 15
302	 12
303	 14
304	 17
305	 20
306	 18
307	 18
308	 10
309	 15
310	 13
311	 17
312	 20
313	 11
314	 13
315	 17
316	 15
317	 18
318	 15
319	 20
320	 16
321	 17
322	 12
323	 14
324	 17
325	 20
326	 16
327	 14
328	 19
329	 14
330	 19
331	 20
332	 12
333	 15
334	 18
335	 19
336	 11
337	 15
338	 17
339	 15
340	 14
341	 20
342	 17
343	 18
344	 16
345	 17
346	 12
347	 11
348	 12
349	 15
350	 19
351	 13
352	 10
353	 15
354	 19
355	 11
356	 13
357	 18
358	 16
359	 18
360	 19
361	 12
362	 11
363	 15
364	 10
365	 14
366	 20
367	 11
368	 16
369	 16
370	 14
371	 13
372	 15
373	 20
374	 10
375	 12
376	 17
377	 18
378	 15
379	 15
380	 16
381	 18
382	 18
383	 10
384	 16
385	 16
386	 18
387	 17
388	 14
389	 14
390	 20
391	 20
392	 19
393	 10
394	 10
395	 10
396	 14
397	 18
398	 18
399	 13

LOCATION  XCOORD  YCOORD  CAP  READY  DUE  TYP  SERVICETIME
0		23		2		-1		0		720	 0		0
1		32		36		-1		48		288		 2		6
2		28		49		-1		149		389		 2		6
3		18		34		-1		0		360		 2		6
4		11		43		-1		171		411		 2		6
5		3		22		-1		226		346		 2		6
6		13		19		-1		0		360		 2		6
7		29		50		-1		550		670		 2		6
8		2		47		-1		528		648		 2		6
9		43		10		-1		221		341		 2		6
10		21		30		-1		0		360		 2		6
11		35		11		-1		418		538		 2		6
12		18		23		-1		508		628		 2		6
13		32		25		-1		71		191		 2		6
14		32		36		-1		285		525		 2		6
15		17		31		-1		360		720		 2		6
16		28		1		-1		594		714		 2		6
17		37		10		-1		142		262		 2		6
18		22		3		-1		406		526		 2		6
19		14		37		-1		360		720		 2		6
20		17		38		-1		0		360		 2		6
21		27		26		-1		418		538		 2		6
22		20		15		-1		0		360		 2		6
23		2		13		-1		591		711		 2		6
24		34		5		-1		360		720		 2		6
25		25		19		-1		15		255		 2		6
26		22		24		-1		220		340		 2		6
27		30		8		-1		25		145		 2		6
28		47		13		-1		362		482		 2		6
29		20		35		-1		566		686		 2		6
30		19		47		-1		0		360		 2		6
31		49		26		-1		0		360		 2		6
32		8		36		-1		511		631		 2		6
33		20		26		-1		360		720		 2		6
34		31		4		-1		192		312		 2		6
35		16		31		-1		581		701		 2		6
36		43		45		-1		419		659		 2		6
37		23		47		-1		0		360		 2		6
38		26		47		-1		360		720		 2		6
39		13		46		-1		360		720		 2		6
40		9		49		-1		105		345		 2		6
41		49		15		-1		571		691		 2		6
42		15		43		-1		0		360		 2		6
43		15		11		-1		90		210		 2		6
44		14		5		-1		42		162		 2		6
45		35		14		-1		8		128		 2		6
46		46		40		-1		360		720		 2		6
47		21		47		-1		473		593		 2		6
48		48		27		-1		0		360		 2		6
49		31		19		-1		586		706		 2		6
50		35		47		-1		0		360		 2		6
51		34		40		-1		406		526		 2		6
52		28		38		-1		360		720		 2		6
53		2		24		-1		246		486		 2		6
54		34		26		-1		360		720		 2		6
55		25		33		-1		431		551		 2		6
56		43		10		-1		0		360		 2		6
57		50		48		-1		88		328		 2		6
58		22		31		-1		132		252		 2		6
59		32		43		-1		156		276		 2		6
60		11		10		-1		505		625		 2		6
61		31		21		-1		186		306		 2		6
62		6		5		-1		360		720		 2		6
63		7		49		-1		360		720		 2		6
64		14		22		-1		78		318		 2		6
65		47		7		-1		0		360		 2		6
66		25		31		-1		111		231		 2		6
67		1		48		-1		194		314		 2		6
68		31		17		-1		96		216		 2		6
69		30		49		-1		0		360		 2		6
70		27		4		-1		360		720		 2		6
71		44		46		-1		101		221		 2		6
72		43		32		-1		360		720		 2		6
73		29		15		-1		1		121		 2		6
74		30		24		-1		108		228		 2		6
75		17		1		-1		363		483		 2		6
76		32		15		-1		31		271		 2		6
77		15		13		-1		124		244		 2		6
78		36		7		-1		401		641		 2		6
79		43		33		-1		220		340		 2		6
80		28		43		-1		360		720		 2		6
81		8		42		-1		360		720		 2		6
82		12		48		-1		360		720		 2		6
83		26		36		-1		0		360		 2		6
84		46		8		-1		360		720		 2		6
85		23		30		-1		0		360		 2		6
86		7		33		-1		61		181		 2		6
87		1		26		-1		0		360		 2		6
88		40		50		-1		360		720		 2		6
89		24		35		-1		516		636		 2		6
90		48		27		-1		373		493		 2		6
91		5		32		-1		404		524		 2		6
92		36		25		-1		308		548		 2		6
93		12		47		-1		360		720		 2		6
94		11		42		-1		203		323		 2		6
95		22		9		-1		0		360		 2		6
96		7		45		-1		440		680		 2		6
97		22		39		-1		0		360		 2		6
98		30		17		-1		0		360		 2		6
99		41		12		-1		0		360		 2		6
100		14		47		-1		360		720		 2		6
101		48		20		-1		360		720		 2		6
102		49		41		-1		360		720		 2		6
103		5		35		-1		0		360		 2		6
104		21		45		-1		0		120		 2		6
105		36		17		-1		75		195		 2		6
106		32		37		-1		360		720		 2		6
107		37		42		-1		390		510		 2		6
108		12		16		-1		469		709		 2		6
109		42		32		-1		389		629		 2		6
110		42		22		-1		0		360		 2		6
111		39		22		-1		360		720		 2		6
112		50		48		-1		360		720		 2		6
113		14		10		-1		14		254		 2		6
114		27		45		-1		0		360		 2		6
115		5		25		-1		0		360		 2		6
116		18		22		-1		0		360		 2		6
117		32		7		-1		360		720		 2		6
118		8		35		-1		40		160		 2		6
119		31		36		-1		360		720		 2		6
120		42		32		-1		44		284		 2		6
121		34		41		-1		0		360		 2		6
122		6		27		-1		0		360		 2		6
123		12		20		-1		360		720		 2		6
124		21		25		-1		178		298		 2		6
125		40		14		-1		225		465		 2		6
126		12		6		-1		360		720		 2		6
127		30		32		-1		159		399		 2		6
128		40		10		-1		476		596		 2		6
129		38		48		-1		515		635		 2		6
130		6		25		-1		599		719		 2		6
131		38		26		-1		148		268		 2		6
132		42		21		-1		37		157		 2		6
133		28		4		-1		201		321		 2		6
134		42		27		-1		441		561		 2		6
135		45		47		-1		360		720		 2		6
136		2		35		-1		182		422		 2		6
137		27		24		-1		435		555		 2		6
138		40		30		-1		15		135		 2		6
139		30		12		-1		0		360		 2		6
140		34		32		-1		360		720		 2		6
141		29		33		-1		0		360		 2		6
142		38		48		-1		365		605		 2		6
143		25		44		-1		50		170		 2		6
144		24		49		-1		0		360		 2		6
145		17		45		-1		583		703		 2		6
146		9		14		-1		459		699		 2		6
147		10		1		-1		360		720		 2		6
148		25		15		-1		0		360		 2		6
149		11		46		-1		7		127		 2		6
150		45		12		-1		470		590		 2		6
151		22		35		-1		0		360		 2		6
152		46		37		-1		432		552		 2		6
153		22		23		-1		193		433		 2		6
154		4		31		-1		227		347		 2		6
155		45		23		-1		441		561		 2		6
156		28		39		-1		14		134		 2		6
157		25		26		-1		32		152		 2		6
158		48		19		-1		403		523		 2		6
159		28		44		-1		360		720		 2		6
160		25		29		-1		0		360		 2		6
161		5		17		-1		239		479		 2		6
162		24		34		-1		348		588		 2		6
163		14		14		-1		456		576		 2		6
164		1		45		-1		417		657		 2		6
165		4		14		-1		396		636		 2		6
166		44		21		-1		68		188		 2		6
167		11		5		-1		360		720		 2		6
168		17		48		-1		360		720		 2		6
169		35		19		-1		511		631		 2		6
170		38		17		-1		0		360		 2		6
171		33		43		-1		237		357		 2		6
172		11		32		-1		0		360		 2		6
173		14		27		-1		0		360		 2		6
174		17		49		-1		360		720		 2		6
175		19		8		-1		360		720		 2		6
176		9		32		-1		518		638		 2		6
177		17		38		-1		79		199		 2		6
178		14		44		-1		66		186		 2		6
179		26		39		-1		510		630		 2		6
180		20		33		-1		434		554		 2		6
181		22		23		-1		569		689		 2		6
182		50		34		-1		360		720		 2		6
183		22		8		-1		360		720		 2		6
184		41		5		-1		360		720		 2		6
185		25		29		-1		0		360		 2		6
186		12		28		-1		360		720		 2		6
187		2		23		-1		360		720		 2		6
188		12		45		-1		190		310		 2		6
189		29		34		-1		0		360		 2		6
190		34		24		-1		52		172		 2		6
191		30		38		-1		44		164		 2		6
192		12		5		-1		252		492		 2		6
193		30		39		-1		0		360		 2		6
194		22		31		-1		146		266		 2		6
195		30		49		-1		174		294		 2		6
196		23		5		-1		207		447		 2		6
197		12		7		-1		220		340		 2		6
198		24		13		-1		0		360		 2		6
199		9		3		-1		0		360		 2		6
200		16		11		-1		227		347		 2		6
201		16		32		-1		282		522		 2		6
202		49		37		-1		36		156		 2		6
203		4		38		-1		360		720		 2		6
204		23		28		-1		0		360		 2		6
205		10		12		-1		369		489		 2		6
206		27		27		-1		596		716		 2		6
207		9		8		-1		577		697		 2		6
208		32		9		-1		0		360		 2		6
209		35		29		-1		259		499		 2		6
210		42		21		-1		403		523		 2		6
211		8		45		-1		360		720		 2		6
212		39		10		-1		360		720		 2		6
213		30		8		-1		360		720		 2		6
214		4		10		-1		360		720		 2		6
215		8		29		-1		225		345		 2		6
216		19		19		-1		360		720		 2		6
217		5		6		-1		85		205		 2		6
218		28		45		-1		0		360		 2		6
219		24		50		-1		0		360		 2		6
220		43		48		-1		166		286		 2		6
221		9		24		-1		360		720		 2		6
222		19		48		-1		370		490		 2		6
223		41		39		-1		0		360		 2		6
224		41		27		-1		219		339		 2		6
225		8		34		-1		376		496		 2		6
226		43		3		-1		414		534		 2		6
227		1		11		-1		360		720		 2		6
228		15		33		-1		0		360		 2		6
229		32		27		-1		360		720		 2		6
230		13		21		-1		0		360		 2		6
231		17		3		-1		6		126		 2		6
232		12		36		-1		7		247		 2		6
233		14		6		-1		360		720		 2		6
234		17		45		-1		7		127		 2		6
235		35		36		-1		436		556		 2		6
236		31		12		-1		26		266		 2		6
237		13		3		-1		232		472		 2		6
238		1		30		-1		102		222		 2		6
239		41		14		-1		155		395		 2		6
240		41		40		-1		360		720		 2		6
241		2		9		-1		0		360		 2		6
242		8		46		-1		0		360		 2		6
243		49		27		-1		0		360		 2		6
244		21		9		-1		371		491		 2		6
245		22		33		-1		0		360		 2		6
246		43		27		-1		419		539		 2		6
247		36		21		-1		106		346		 2		6
248		49		5		-1		467		587		 2		6
249		21		25		-1		121		241		 2		6
250		23		16		-1		360		720		 2		6
251		30		29		-1		119		359		 2		6
252		36		20		-1		360		720		 2		6
253		6		12		-1		0		360		 2		6
254		10		8		-1		0		360		 2		6
255		42		9		-1		211		331		 2		6
256		21		15		-1		360		720		 2		6
257		27		37		-1		166		286		 2		6
258		16		42		-1		67		187		 2		6
259		27		2		-1		507		627		 2		6
260		41		7		-1		360		720		 2		6
261		11		33		-1		509		629		 2		6
262		8		42		-1		303		543		 2		6
263		36		23		-1		0		360		 2		6
264		38		38		-1		156		276		 2		6
265		46		12		-1		134		374		 2		6
266		39		49		-1		524		644		 2		6
267		40		25		-1		552		672		 2		6
268		25		5		-1		360		720		 2		6
269		10		26		-1		360		720		 2		6
270		20		40		-1		0		360		 2		6
271		6		16		-1		506		626		 2		6
272		16		41		-1		580		700		 2		6
273		18		5		-1		360		720		 2		6
274		25		3		-1		0		360		 2		6
275		44		6		-1		513		633		 2		6
276		14		35		-1		78		198		 2		6
277		42		40		-1		526		646		 2		6
278		50		6		-1		132		252		 2		6
279		1		43		-1		494		614		 2		6
280		21		37		-1		478		718		 2		6
281		46		43		-1		11		131		 2		6
282		26		40		-1		360		720		 2		6
283		24		34		-1		0		360		 2		6
284		39		26		-1		360		720		 2		6
285		20		13		-1		0		360		 2		6
286		18		14		-1		360		720		 2		6
287		5		10		-1		360		720		 2		6
288		48		38		-1		117		237		 2		6
289		4		22		-1		115		355		 2		6
290		36		21		-1		360		720		 2		6
291		22		43		-1		401		521		 2		6
292		39		4		-1		360		720		 2		6
293		23		22		-1		216		336		 2		6
294		46		28		-1		360		720		 2		6
295		13		42		-1		0		360		 2		6
296		25		49		-1		510		630		 2		6
297		15		25		-1		360		720		 2		6
298		30		10		-1		510		630		 2		6
299		41		20		-1		202		322		 2		6
300		18		19		-1		476		596		 2		6
301		36		33		-1		107		227		 2		6
302		15		31		-1		0		360		 2		6
303		43		17		-1		360		720		 2		6
304		26		5		-1		360		720		 2		6
305		13		12		-1		574		694		 2		6
306		1		18		-1		360		720		 2		6
307		26		20		-1		360		720		 2		6
308		15		19		-1		169		409		 2		6
309		50		43		-1		0		360		 2		6
310		36		36		-1		0		360		 2		6
311		40		17		-1		240		360		 2		6
312		37		27		-1		96		216		 2		6
313		25		3		-1		326		566		 2		6
314		19		4		-1		360		720		 2		6
315		2		9		-1		360		720		 2		6
316		19		27		-1		0		360		 2		6
317		39		1		-1		0		360		 2		6
318		16		7		-1		145		265		 2		6
319		24		16		-1		0		360		 2		6
320		4		2		-1		118		238		 2		6
321		29		43		-1		360		720		 2		6
322		18		49		-1		25		145		 2		6
323		8		44		-1		0		360		 2		6
324		26		18		-1		360		720		 2		6
325		2		44		-1		527		647		 2		6
326		12		20		-1		344		584		 2		6
327		16		8		-1		360		720		 2		6
328		9		34		-1		360		720		 2		6
329		3		26		-1		427		667		 2		6
330		27		26		-1		14		254		 2		6
331		35		32		-1		360		720		 2		6
332		25		40		-1		494		614		 2		6
333		32		22		-1		557		677		 2		6
334		48		5		-1		0		360		 2		6
335		33		43		-1		121		241		 2		6
336		8		31		-1		84		204		 2		6
337		34		17		-1		0		360		 2		6
338		28		33		-1		376		496		 2		6
339		30		48		-1		384		504		 2		6
340		22		3		-1		504		624		 2		6
341		46		37		-1		167		287		 2		6
342		40		1		-1		57		297		 2		6
343		16		40		-1		416		536		 2		6
344		17		12		-1		209		449		 2		6
345		14		5		-1		256		496		 2		6
346		1		23		-1		9		129		 2		6
347		33		45		-1		0		360		 2		6
348		46		2		-1		91		331		 2		6
349		11		17		-1		73		193		 2		6
350		14		41		-1		0		360		 2		6
351		9		46		-1		360		720		 2		6
352		13		16		-1		152		272		 2		6
353		11		4		-1		360		720		 2		6
354		15		42		-1		487		607		 2		6
355		2		42		-1		360		720		 2		6
356		36		21		-1		94		214		 2		6
357		27		10		-1		360		720		 2		6
358		48		21		-1		0		360		 2		6
359		24		47		-1		0		360		 2		6
360		31		34		-1		0		360		 2		6
361		37		40		-1		187		307		 2		6
362		25		22		-1		151		271		 2		6
363		48		25		-1		0		360		 2		6
364		26		25		-1		516		636		 2		6
365		13		47		-1		559		679		 2		6
366		18		25		-1		480		600		 2		6
367		28		34		-1		360		720		 2		6
368		9		12		-1		187		307		 2		6
369		45		46		-1		0		360		 2		6
370		17		23		-1		128		248		 2		6
371		5		38		-1		360		720		 2		6
372		24		18		-1		360		720		 2		6
373		10		35		-1		469		589		 2		6
374		44		36		-1		182		302		 2		6
375		5		24		-1		229		469		 2		6
376		41		23		-1		157		397		 2		6
377		24		45		-1		210		330		 2		6
378		25		1		-1		456		696		 2		6
379		16		3		-1		382		622		 2		6
380		4		49		-1		501		621		 2		6
381		20		15		-1		375		495		 2		6
382		44		1		-1		0		360		 2		6
383		46		34		-1		387		627		 2		6
384		3		43		-1		0		360		 2		6
385		26		4		-1		0		360		 2		6
386		2		45		-1		459		579		 2		6
387		20		39		-1		360		720		 2		6
388		15		24		-1		383		623		 2		6
389		42		2		-1		360		720		 2		6
390		10		40		-1		161		281		 2		6
391		39		30		-1		360		720		 2		6
392		42		21		-1		376		496		 2		6
393		50		42		-1		494		614		 2		6
394		10		36		-1		454		574		 2		6
395		48		14		-1		186		306		 2		6
396		9		11		-1		360		720		 2		6
397		31		20		-1		97		217		 2		6
398		42		4		-1		0		360		 2		6
399		11		37		-1		4		124		 2		6
400		36		48		-1		244		484		 2		6
401		15		25		5		61		541		 1		4
402		45		22		3		0		720		 1		4
403		21		34		3		0		720		 1		4
404		27		37		4		0		720		 1		4
405		37		41		5		194		674		 1		4
406		25		10		5		46		526		 1		4
407		17		32		5		0		720		 1		4
408		21		11		5		232		712		 1		4
409		38		23		3		0		720		 1		4
410		12		34		4		0		720		 1		4
411		41		15		3		0		720		 1		4
412		29		7		5		204		684		 1		4
413		39		38		5		98		578		 1		4
414		43		18		5		0		720		 1		4
415		38		34		5		165		645		 1		4
416		27		15		3		0		720		 1		4
417		22		10		5		85		565		 1		4
418		24		33		5		220		700		 1		4
419		8		19		5		36		516		 1		4
420		9		23		5		115		595		 1		4
421		43		41		3		0		720		 1		4
422		36		7		5		179		659		 1		4
423		41		32		5		185		665		 1		4
424		24		37		3		0		720		 1		4
425		24		8		5		232		712		 1		4
426		43		30		5		224		704		 1		4
427		24		7		5		76		556		 1		4
428		36		23		5		0		720		 1		4
429		33		41		4		0		720		 1		4
430		5		34		5		53		533		 1		4
431		24		11		5		238		718		 1		4
432		41		20		5		89		569		 1		4
433		17		15		5		14		494		 1		4
434		5		9		5		0		720		 1		4
435		36		38		5		0		720		 1		4
436		17		39		5		19		499		 1		4
437		27		33		4		0		720		 1		4
438		14		28		5		73		553		 1		4
439		31		36		3		0		720		 1		4
440		41		17		5		27		507		 1		4
441		12		16		5		162		642		 1		4
442		36		16		5		0		720		 1		4
443		18		18		5		173		653		 1		4
444		27		20		5		43		523		 1		4
445		33		13		4		0		720		 1		4
446		24		42		3		0		720		 1		4
447		6		14		5		183		663		 1		4
448		13		43		3		0		720		 1		4
449		39		45		4		0		720		 1		4
450		23		15		5		155		635		 1		4
451		44		40		5		16		496		 1		4
452		43		22		5		110		590		 1		4
453		39		23		5		222		702		 1		4
454		18		30		5		63		543		 1		4
455		16		18		3		0		720		 1		4
456		39		14		4		0		720		 1		4
457		6		18		3		0		720		 1		4
458		28		27		5		102		582		 1		4
459		29		10		5		0		720		 1		4
460		25		34		5		0		720		 1		4
461		13		39		4		0		720		 1		4
462		31		38		4		0		720		 1		4
463		21		8		5		0		720		 1		4
464		33		10		4		0		720		 1		4
465		30		28		3		0		720		 1		4
466		23		6		5		134		614		 1		4
467		5		37		5		59		539		 1		4
468		44		10		4		0		720		 1		4
469		23		25		5		0		720		 1		4
470		6		8		4		0		720		 1		4
471		24		10		5		179		659		 1		4
472		22		19		5		153		633		 1		4
473		25		34		5		8		488		 1		4
474		41		22		5		197		677		 1		4
475		30		26		5		225		705		 1		4
476		25		30		4		0		720		 1		4
477		8		45		5		11		491		 1		4
478		17		45		5		83		563		 1		4
479		27		42		5		0		720		 1		4
480		42		8		5		77		557		 1		4
OPTION  LOCATION  CUSTOMER  PRIO  SERVICETIME   COST
0		432		0		0		2		0
1		420		1		0		2		0
2		451		2		0		2		0
3		480		3		0		2		0
4		422		4		0		2		0
5		439		5		0		2		0
6		476		6		0		2		0
7		440		7		0		2		0
8		413		8		0		2		0
9		435		9		0		2		0
10		436		10		0		2		0
11		420		11		0		2		0
12		465		12		0		2		0
13		406		13		0		2		0
14		408		14		0		2		0
15		447		15		0		2		0
16		461		16		0		2		0
17		478		17		0		2		0
18		441		18		0		2		0
19		409		19		0		2		0
20		465		20		0		2		0
21		409		21		0		2		0
22		414		22		0		2		0
23		467		23		0		2		0
24		435		24		0		2		0
25		431		25		0		2		0
26		472		26		0		2		0
27		434		27		0		2		0
28		406		28		0		2		0
29		437		29		0		2		0
30		444		30		0		2		0
31		412		31		0		2		0
32		456		32		0		2		0
33		444		33		0		2		0
34		414		34		0		2		0
35		468		35		0		2		0
36		415		36		0		2		0
37		409		37		0		2		0
38		429		38		0		2		0
39		438		39		0		2		0
40		445		40		0		2		0
41		402		41		0		2		0
42		448		42		0		2		0
43		410		43		0		2		0
44		444		44		0		2		0
45		436		45		0		2		0
46		461		46		0		2		0
47		411		47		0		2		0
48		433		48		0		2		0
49		442		49		0		2		0
50		403		50		0		2		0
51		454		51		0		2		0
52		420		52		0		2		0
53		448		53		0		2		0
54		463		54		0		2		0
55		421		55		0		2		0
56		444		56		0		2		0
57		408		57		0		2		0
58		467		58		0		2		0
59		434		59		0		2		0
60		425		60		0		2		0
61		468		61		0		2		0
62		412		62		0		2		0
63		456		63		0		2		0
64		470		64		0		2		0
65		435		65		0		2		0
66		453		66		0		2		0
67		455		67		0		2		0
68		443		68		0		2		0
69		453		69		0		2		0
70		467		70		0		2		0
71		451		71		0		2		0
72		445		72		0		2		0
73		480		73		0		2		0
74		406		74		0		2		0
75		412		75		0		2		0
76		469		76		0		2		0
77		447		77		0		2		0
78		404		78		0		2		0
79		414		79		0		2		0
80		1		80		0		5		0
81		2		81		0		5		0
82		3		82		0		5		0
83		4		83		0		5		0
84		5		84		0		5		0
85		6		85		0		5		0
86		7		86		0		5		0
87		8		87		0		5		0
88		9		88		0		5		0
89		10		89		0		5		0
90		11		90		0		5		0
91		12		91		0		5		0
92		13		92		0		5		0
93		14		93		0		5		0
94		15		94		0		5		0
95		16		95		0		5		0
96		17		96		0		5		0
97		18		97		0		5		0
98		19		98		0		5		0
99		20		99		0		5		0
100		21		100		0		5		0
101		22		101		0		5		0
102		23		102		0		5		0
103		24		103		0		5		0
104		25		104		0		5		0
105		26		105		0		5		0
106		27		106		0		5		0
107		28		107		0		5		0
108		29		108		0		5		0
109		30		109		0		5		0
110		31		110		0		5		0
111		32		111		0		5		0
112		33		112		0		5		0
113		34		113		0		5		0
114		35		114		0		5		0
115		36		115		0		5		0
116		37		116		0		5		0
117		38		117		0		5		0
118		39		118		0		5		0
119		40		119		0		5		0
120		41		120		0		5		0
121		42		121		0		5		0
122		43		122		0		5		0
123		44		123		0		5		0
124		45		124		0		5		0
125		46		125		0		5		0
126		47		126		0		5		0
127		48		127		0		5		0
128		49		128		0		5		0
129		50		129		0		5		0
130		51		130		0		5		0
131		52		131		0		5		0
132		53		132		0		5		0
133		54		133		0		5		0
134		55		134		0		5		0
135		56		135		0		5		0
136		57		136		0		5		0
137		58		137		0		5		0
138		59		138		0		5		0
139		60		139		0		5		0
140		61		140		0		5		0
141		62		141		0		5		0
142		63		142		0		5		0
143		64		143		0		5		0
144		65		144		0		5		0
145		66		145		0		5		0
146		67		146		0		5		0
147		68		147		0		5		0
148		69		148		0		5		0
149		70		149		0		5		0
150		71		150		0		5		0
151		72		151		0		5		0
152		73		152		0		5		0
153		74		153		0		5		0
154		75		154		0		5		0
155		76		155		0		5		0
156		77		156		0		5		0
157		78		157		0		5		0
158		79		158		0		5		0
159		80		159		0		5		0
160		81		160		1		5		0
161		430		160		0		2		0
162		82		161		1		5		0
163		456		161		0		2		0
164		83		162		0		5		0
165		473		162		1		2		0
166		84		163		1		5		0
167		456		163		0		2		0
168		85		164		0		5		0
169		449		164		1		2		0
170		86		165		0		5		0
171		467		165		1		2		0
172		87		166		0		5		0
173		430		166		1		2		0
174		88		167		0		5		0
175		407		167		1		2		0
176		89		168		0		5		0
177		409		168		1		2		0
178		90		169		0		5		0
179		435		169		1		2		0
180		91		170		1		5		0
181		467		170		0		2		0
182		92		171		1		5		0
183		453		171		0		2		0
184		93		172		0		5		0
185		468		172		1		2		0
186		94		173		1		5		0
187		478		173		0		2		0
188		95		174		0		5		0
189		439		174		1		2		0
190		96		175		1		5		0
191		445		175		0		2		0
192		97		176		1		5		0
193		446		176		0		2		0
194		98		177		0		5		0
195		459		177		1		2		0
196		99		178		0		5		0
197		418		178		1		2		0
198		100		179		0		5		0
199		410		179		1		2		0
200		101		180		0		5		0
201		432		180		1		2		0
202		102		181		1		5		0
203		449		181		0		2		0
204		103		182		1		5		0
205		406		182		0		2		0
206		104		183		1		5		0
207		446		183		0		2		0
208		105		184		1		5		0
209		440		184		0		2		0
210		106		185		1		5		0
211		429		185		0		2		0
212		107		186		0		5		0
213		429		186		1		2		0
214		108		187		1		5		0
215		418		187		0		2		0
216		109		188		0		5		0
217		430		188		1		2		0
218		110		189		0		5		0
219		453		189		1		2		0
220		111		190		1		5		0
221		436		190		0		2		0
222		112		191		0		5		0
223		477		191		1		2		0
224		113		192		0		5		0
225		470		192		1		2		0
226		114		193		1		5		0
227		446		193		0		2		0
228		115		194		1		5		0
229		462		194		0		2		0
230		116		195		0		5		0
231		472		195		1		2		0
232		117		196		0		5		0
233		459		196		1		2		0
234		118		197		1		5		0
235		461		197		0		2		0
236		119		198		1		5		0
237		474		198		0		2		0
238		120		199		0		5		0
239		451		199		1		2		0
240		121		200		0		5		0
241		428		200		1		2		0
242		122		201		0		5		0
243		477		201		1		2		0
244		123		202		0		5		0
245		401		202		1		2		0
246		124		203		0		5		0
247		449		203		1		2		0
248		125		204		0		5		0
249		458		204		1		2		0
250		126		205		0		5		0
251		422		205		1		2		0
252		127		206		1		5		0
253		460		206		0		2		0
254		128		207		1		5		0
255		411		207		0		2		0
256		129		208		1		5		0
257		466		208		0		2		0
258		130		209		0		5		0
259		401		209		1		2		0
260		131		210		1		5		0
261		440		210		0		2		0
262		132		211		0		5		0
263		435		211		1		2		0
264		133		212		1		5		0
265		455		212		0		2		0
266		134		213		1		5		0
267		436		213		0		2		0
268		135		214		1		5		0
269		441		214		0		2		0
270		136		215		0		5		0
271		426		215		1		2		0
272		137		216		0		5		0
273		465		216		1		2		0
274		138		217		1		5		0
275		463		217		0		2		0
276		139		218		1		5		0
277		416		218		0		2		0
278		140		219		0		5		0
279		461		219		1		2		0
280		141		220		0		5		0
281		439		220		1		2		0
282		142		221		0		5		0
283		449		221		1		2		0
284		143		222		1		5		0
285		467		222		0		2		0
286		144		223		1		5		0
287		478		223		0		2		0
288		145		224		0		5		0
289		446		224		1		2		0
290		146		225		0		5		0
291		435		225		1		2		0
292		147		226		1		5		0
293		459		226		0		2		0
294		148		227		1		5		0
295		426		227		0		2		0
296		149		228		0		5		0
297		455		228		1		2		0
298		150		229		0		5		0
299		411		229		1		2		0
300		151		230		0		5		0
301		433		230		1		2		0
302		152		231		0		5		0
303		413		231		1		2		0
304		153		232		0		5		0
305		472		232		1		2		0
306		154		233		1		5		0
307		467		233		0		2		0
308		155		234		0		5		0
309		474		234		1		2		0
310		156		235		1		5		0
311		479		235		0		2		0
312		157		236		0		5		0
313		476		236		1		2		0
314		158		237		1		5		0
315		452		237		0		2		0
316		159		238		1		5		0
317		477		238		0		2		0
318		160		239		1		5		0
319		458		239		0		2		0
320		161		240		1		5		0
321		419		240		2		2		0
322		447		240		0		2		0
323		162		241		0		5		0
324		424		241		1		2		0
325		473		241		2		2		0
326		163		242		2		5		0
327		471		242		0		2		0
328		402		242		1		2		0
329		164		243		1		5		0
330		477		243		2		2		0
331		448		243		0		2		0
332		165		244		1		5		0
333		470		244		2		2		0
334		449		244		0		2		0
335		166		245		0		5		0
336		474		245		1		2		0
337		414		245		2		2		0
338		167		246		2		5		0
339		471		246		0		2		0
340		430		246		1		2		0
341		168		247		1		5		0
342		454		247		2		2		0
343		459		247		0		2		0
344		169		248		1		5		0
345		453		248		0		2		0
346		442		248		2		2		0
347		170		249		2		5		0
348		442		249		0		2		0
349		411		249		1		2		0
350		171		250		0		5		0
351		462		250		1		2		0
352		463		250		2		2		0
353		172		251		2		5		0
354		406		251		0		2		0
355		423		251		1		2		0
356		173		252		2		5		0
357		407		252		1		2		0
358		420		252		0		2		0
359		174		253		0		5		0
360		477		253		1		2		0
361		478		253		2		2		0
362		175		254		0		5		0
363		425		254		1		2		0
364		428		254		2		2		0
365		176		255		1		5		0
366		430		255		2		2		0
367		410		255		0		2		0
368		177		256		1		5		0
369		408		256		0		2		0
370		456		256		2		2		0
371		178		257		2		5		0
372		478		257		0		2		0
373		477		257		1		2		0
374		179		258		2		5		0
375		404		258		0		2		0
376		459		258		1		2		0
377		180		259		0		5		0
378		407		259		2		2		0
379		454		259		1		2		0
380		181		260		2		5		0
381		404		260		1		2		0
382		431		260		0		2		0
383		182		261		1		5		0
384		426		261		2		2		0
385		457		261		0		2		0
386		183		262		2		5		0
387		427		262		0		2		0
388		463		262		1		2		0
389		184		263		0		5		0
390		405		263		1		2		0
391		439		263		2		2		0
392		185		264		0		5		0
393		437		264		2		2		0
394		473		264		1		2		0
395		186		265		2		5		0
396		410		265		1		2		0
397		432		265		0		2		0
398		187		266		2		5		0
399		457		266		0		2		0
400		419		266		1		2		0
401		188		267		2		5		0
402		478		267		0		2		0
403		449		267		1		2		0
404		189		268		0		5		0
405		439		268		1		2		0
406		430		268		2		2		0
407		190		269		1		5		0
408		428		269		0		2		0
409		453		269		2		2		0
410		191		270		0		5		0
411		404		270		1		2		0
412		454		270		2		2		0
413		192		271		0		5		0
414		470		271		2		2		0
415		434		271		1		2		0
416		193		272		0		5		0
417		455		272		2		2		0
418		418		272		1		2		0
419		194		273		0		5		0
420		402		273		1		2		0
421		431		273		2		2		0
422		195		274		0		5		0
423		446		274		1		2		0
424		479		274		2		2		0
425		196		275		0		5		0
426		417		275		1		2		0
427		466		275		2		2		0
428		197		276		0		5		0
429		472		276		1		2		0
430		432		276		2		2		0
431		198		277		1		5		0
432		415		277		2		2		0
433		480		277		0		2		0
434		199		278		0		5		0
435		463		278		2		2		0
436		447		278		1		2		0
437		200		279		0		5		0
438		463		279		1		2		0
439		433		279		2		2		0
440		201		280		1		5		0
441		459		280		2		2		0
442		412		280		0		2		0
443		202		281		1		5		0
444		423		281		2		2		0
445		421		281		0		2		0
446		203		282		2		5		0
447		477		282		0		2		0
448		467		282		1		2		0
449		204		283		0		5		0
450		454		283		1		2		0
451		405		283		2		2		0
452		205		284		2		5		0
453		447		284		0		2		0
454		478		284		1		2		0
455		206		285		2		5		0
456		465		285		0		2		0
457		411		285		1		2		0
458		207		286		2		5		0
459		441		286		0		2		0
460		471		286		1		2		0
461		208		287		0		5		0
462		445		287		2		2		0
463		440		287		1		2		0
464		209		288		2		5		0
465		424		288		1		2		0
466		447		288		0		2		0
467		210		289		1		5		0
468		432		289		0		2		0
469		402		289		2		2		0
470		211		290		1		5		0
471		448		290		2		2		0
472		465		290		0		2		0
473		212		291		1		5		0
474		411		291		2		2		0
475		480		291		0		2		0
476		213		292		2		5		0
477		426		292		0		2		0
478		427		292		1		2		0
479		214		293		2		5		0
480		457		293		0		2		0
481		430		293		1		2		0
482		215		294		0		5		0
483		432		294		2		2		0
484		420		294		1		2		0
485		216		295		1		5		0
486		433		295		0		2		0
487		468		295		2		2		0
488		217		296		1		5		0
489		435		296		2		2		0
490		414		296		0		2		0
491		218		297		0		5		0
492		462		297		2		2		0
493		446		297		1		2		0
494		219		298		1		5		0
495		429		298		0		2		0
496		479		298		2		2		0
497		220		299		1		5		0
498		451		299		0		2		0
499		413		299		2		2		0
500		221		300		1		5		0
501		401		300		0		2		0
502		467		300		2		2		0
503		222		301		0		5		0
504		431		301		2		2		0
505		409		301		1		2		0
506		223		302		1		5		0
507		435		302		2		2		0
508		421		302		0		2		0
509		224		303		1		5		0
510		423		303		2		2		0
511		435		303		0		2		0
512		225		304		2		5		0
513		430		304		0		2		0
514		471		304		1		2		0
515		226		305		0		5		0
516		411		305		2		2		0
517		468		305		1		2		0
518		227		306		2		5		0
519		419		306		0		2		0
520		436		306		1		2		0
521		228		307		2		5		0
522		410		307		0		2		0
523		407		307		1		2		0
524		229		308		1		5		0
525		462		308		0		2		0
526		452		308		2		2		0
527		230		309		1		5		0
528		454		309		2		2		0
529		414		309		0		2		0
530		231		310		1		5		0
531		427		310		2		2		0
532		475		310		0		2		0
533		232		311		1		5		0
534		436		311		2		2		0
535		456		311		0		2		0
536		233		312		2		5		0
537		417		312		1		2		0
538		466		312		0		2		0
539		234		313		0		5		0
540		478		313		1		2		0
541		474		313		2		2		0
542		235		314		2		5		0
543		439		314		0		2		0
544		435		314		1		2		0
545		236		315		2		5		0
546		405		315		1		2		0
547		416		315		0		2		0
548		237		316		0		5		0
549		470		316		1		2		0
550		419		316		2		2		0
551		238		317		2		5		0
552		467		317		0		2		0
553		457		317		1		2		0
554		239		318		2		5		0
555		447		318		0		2		0
556		453		318		1		2		0
557		240		319		0		5		0
558		446		319		2		2		0
559		420		319		1		2		0
560		241		320		0		5		0
561		242		320		1		5		0
562		470		320		2		2		0
563		243		321		1		5		0
564		244		321		0		5		0
565		480		321		2		2		0
566		245		322		1		5		0
567		246		322		2		5		0
568		460		322		0		2		0
569		247		323		2		5		0
570		248		323		0		5		0
571		466		323		1		2		0
572		249		324		2		5		0
573		250		324		1		5		0
574		468		324		0		2		0
575		251		325		2		5		0
576		252		325		1		5		0
577		475		325		0		2		0
578		253		326		1		5		0
579		254		326		0		5		0
580		441		326		2		2		0
581		255		327		2		5		0
582		256		327		0		5		0
583		480		327		1		2		0
584		257		328		2		5		0
585		258		328		1		5		0
586		448		328		0		2		0
587		259		329		2		5		0
588		260		329		0		5		0
589		412		329		1		2		0
590		261		330		2		5		0
591		262		330		0		5		0
592		448		330		1		2		0
593		263		331		1		5		0
594		264		331		0		5		0
595		428		331		2		2		0
596		265		332		2		5		0
597		266		332		0		5		0
598		450		332		1		2		0
599		267		333		0		5		0
600		268		333		1		5		0
601		409		333		2		2		0
602		269		334		0		5		0
603		270		334		1		5		0
604		436		334		2		2		0
605		271		335		0		5		0
606		272		335		2		5		0
607		436		335		1		2		0
608		273		336		1		5		0
609		274		336		2		5		0
610		427		336		0		2		0
611		275		337		0		5		0
612		276		337		1		5		0
613		424		337		2		2		0
614		277		338		0		5		0
615		278		338		1		5		0
616		470		338		2		2		0
617		279		339		2		5		0
618		280		339		0		5		0
619		452		339		1		2		0
620		281		340		2		5		0
621		282		340		1		5		0
622		435		340		0		2		0
623		283		341		1		5		0
624		284		341		2		5		0
625		459		341		0		2		0
626		285		342		2		5		0
627		286		342		0		5		0
628		479		342		1		2		0
629		287		343		0		5		0
630		288		343		1		5		0
631		470		343		2		2		0
632		289		344		1		5		0
633		290		344		2		5		0
634		413		344		0		2		0
635		291		345		0		5		0
636		292		345		1		5		0
637		438		345		2		2		0
638		293		346		2		5		0
639		294		346		1		5		0
640		444		346		0		2		0
641		295		347		2		5		0
642		296		347		1		5		0
643		477		347		0		2		0
644		297		348		1		5		0
645		298		348		0		5		0
646		401		348		2		2		0
647		299		349		1		5		0
648		300		349		2		5		0
649		470		349		0		2		0
650		301		350		0		5		0
651		302		350		1		5		0
652		440		350		2		2		0
653		303		351		1		5		0
654		304		351		2		5		0
655		427		351		0		2		0
656		305		352		0		5		0
657		306		352		1		5		0
658		441		352		2		2		0
659		307		353		2		5		0
660		308		353		0		5		0
661		438		353		1		2		0
662		309		354		2		5		0
663		310		354		1		5		0
664		415		354		0		2		0
665		311		355		1		5		0
666		312		355		2		5		0
667		440		355		0		2		0
668		313		356		0		5		0
669		314		356		1		5		0
670		463		356		2		2		0
671		315		357		1		5		0
672		316		357		0		5		0
673		470		357		2		2		0
674		317		358		0		5		0
675		318		358		2		5		0
676		438		358		1		2		0
677		319		359		1		5		0
678		320		359		0		5		0
679		472		359		2		2		0
680		321		360		2		5		0
681		322		360		0		5		0
682		462		360		1		2		0
683		323		361		2		5		0
684		324		361		0		5		0
685		429		361		1		2		0
686		325		362		1		5		0
687		326		362		2		5		0
688		409		362		0		2		0
689		327		363		0		5		0
690		328		363		1		5		0
691		475		363		2		2		0
692		329		364		1		5		0
693		330		364		2		5		0
694		476		364		0		2		0
695		331		365		1		5		0
696		332		365		0		5		0
697		415		365		2		2		0
698		333		366		1		5		0
699		334		366		0		5		0
700		450		366		2		2		0
701		335		367		2		5		0
702		336		367		1		5		0
703		457		367		0		2		0
704		337		368		0		5		0
705		338		368		1		5		0
706		442		368		2		2		0
707		339		369		1		5		0
708		340		369		0		5		0
709		453		369		2		2		0
710		341		370		1		5		0
711		342		370		0		5		0
712		422		370		2		2		0
713		343		371		2		5		0
714		344		371		1		5		0
715		449		371		0		2		0
716		345		372		2		5		0
717		346		372		0		5		0
718		420		372		1		2		0
719		347		373		2		5		0
720		348		373		0		5		0
721		429		373		1		2		0
722		349		374		0		5		0
723		350		374		1		5		0
724		436		374		2		2		0
725		351		375		1		5		0
726		352		375		2		5		0
727		419		375		0		2		0
728		353		376		1		5		0
729		354		376		2		5		0
730		416		376		0		2		0
731		355		377		0		5		0
732		356		377		2		5		0
733		428		377		1		2		0
734		357		378		2		5		0
735		358		378		0		5		0
736		430		378		1		2		0
737		359		379		1		5		0
738		360		379		0		5		0
739		439		379		2		2		0
740		361		380		2		5		0
741		362		380		0		5		0
742		458		380		1		2		0
743		363		381		0		5		0
744		364		381		2		5		0
745		410		381		1		2		0
746		365		382		0		5		0
747		366		382		1		5		0
748		425		382		2		2		0
749		367		383		0		5		0
750		368		383		1		5		0
751		480		383		2		2		0
752		369		384		1		5		0
753		370		384		2		5		0
754		455		384		0		2		0
755		371		385		2		5		0
756		372		385		1		5		0
757		467		385		0		2		0
758		373		386		0		5		0
759		374		386		1		5		0
760		421		386		2		2		0
761		375		387		0		5		0
762		376		387		1		5		0
763		474		387		2		2		0
764		377		388		0		5		0
765		378		388		1		5		0
766		478		388		2		2		0
767		379		389		0		5		0
768		380		389		1		5		0
769		427		389		2		2		0
770		381		390		1		5		0
771		382		390		2		5		0
772		410		390		0		2		0
773		383		391		0		5		0
774		384		391		2		5		0
775		442		391		1		2		0
776		385		392		0		5		0
777		386		392		2		5		0
778		409		392		1		2		0
779		387		393		1		5		0
780		388		393		2		5		0
781		402		393		0		2		0
782		389		394		2		5		0
783		390		394		1		5		0
784		480		394		0		2		0
785		391		395		2		5		0
786		392		395		0		5		0
787		423		395		1		2		0
788		393		396		0		5		0
789		394		396		2		5		0
790		401		396		1		2		0
791		395		397		0		5		0
792		396		397		1		5		0
793		468		397		2		2		0
794		397		398		2		5		0
795		398		398		1		5		0
796		428		398		0		2		0
797		399		399		2		5		0
798		400		399		0		5		0
799		461		399		1		2		0
